StudentsNr = 10;
InstructorsNr = 54;
DaysNr = 1;
SlotsPerDay = 15;
AvailabilitySlotsLenght = 5;
RoomNr = 1;
ProgrammNr = 2;
DegreeNr = 1;
RolesNr = 1;
CoursesNr = 9;
InstructorsProgramm = [{1, 2}, {1, 2}, {1}, {1}, {2}, {1, 2}, {1}, {1}, {1, 2}, {2}, {2}, {1, 2}, {2}, {2}, {1}, {2}, {1}, {2}, {1, 2}, {1}, {1}, {1}, {2}, {1, 2}, {1, 2}, {1}, {2}, {2}, {2}, {1, 2}, {2}, {1}, {2}, {1}, {2}, {1, 2}, {1, 2}, {1}, {1}, {2}, {1}, {2}, {2}, {2}, {1, 2}, {2}, {2}, {1}, {1, 2}, {2}, {1, 2}, {1}, {1}, {1}];
InstructorRolesPerProgramm = [|{3, 4, 7, 9, 17, 20, 21, 22, 24, 25, 26, 32, 36, 37, 39, 45, 49, 52, 53, 54}|{9, 14, 18, 24, 25, 27, 28, 29, 31, 36, 37, 42, 43, 45, 49}|];
InstructorsAvailability = [|1, 1, 1, |1, 1, 1, |0, 1, 0, |0, 0, 1, |0, 1, 1, |0, 1, 1, |0, 0, 1, |1, 1, 0, |0, 1, 1, |1, 1, 0, |1, 1, 1, |1, 1, 1, |0, 1, 1, |0, 0, 0, |1, 1, 1, |0, 1, 1, |1, 1, 1, |1, 1, 1, |0, 1, 1, |1, 1, 1, |1, 1, 1, |0, 0, 0, |1, 1, 1, |0, 0, 1, |1, 1, 0, |1, 1, 1, |0, 1, 0, |1, 1, 1, |1, 1, 0, |0, 0, 1, |0, 1, 0, |0, 0, 1, |0, 1, 1, |0, 0, 0, |1, 1, 1, |0, 0, 0, |0, 1, 1, |1, 1, 1, |0, 1, 1, |1, 1, 1, |1, 1, 1, |1, 1, 1, |1, 1, 1, |0, 0, 1, |1, 1, 1, |0, 1, 1, |0, 1, 1, |1, 1, 0, |1, 1, 0, |0, 0, 1, |1, 1, 1, |0, 0, 1, |0, 0, 1, |1, 1, 1|];
StudentsProgramm = [1, 2, 1, 1, 1, 2, 2, 1, 2, 2];
StudentsDegree = [1, 1, 1, 1, 1, 1, 1, 1, 1, 1];
StudentsSupervisorId = [30, 46, 49, 48, 8, 50, 23, 38, 28, 11];
StudentsCourseIds = [{1, 3, 4, 5, 7, 8}, {1, 2, 3, 5, 6, 9}, {1, 2, 3, 6, 8, 9}, {2, 3, 5, 7, 8, 9}, {1, 4, 5, 6, 7, 8}, {1, 2, 6, 7, 8, 9}, {1, 2, 4, 6, 8, 9}, {2, 4, 5, 7, 8, 9}, {2, 3, 5, 6, 7, 9}, {2, 3, 4, 5, 8, 9}];
StudentsAvailability = [|0, 0, 0, |1, 1, 1, |0, 0, 0, |1, 1, 1, |1, 1, 1, |0, 0, 0, |1, 1, 1, |1, 1, 1, |0, 1, 1, |1, 1, 1|];
TheoryticalMinCard = [0, 0, 0, 0, 0, 0, 1, 0, 0, 0];
CoursesInstructorIds = [{1, 9, 15, 16, 17, 18, 19, 20, 26, 27, 30, 33, 34, 37, 40, 44, 45, 46, 47, 54}, {3, 7, 24, 33, 39, 40, 46, 47}, {19, 21, 26, 27, 38, 40, 45, 46, 49}, {1, 3, 7, 11, 13, 19, 22, 28, 30, 31, 32, 35, 38, 39, 40, 43, 44, 45, 47, 54}, {4, 5, 6, 7, 8, 9, 10, 11, 12, 15, 16, 18, 20, 21, 22, 24, 25, 27, 29, 30, 31, 32, 34, 38, 42, 46, 51}, {1, 4, 5, 6, 8, 11, 13, 22, 24, 25, 28, 30, 31, 33, 34, 35, 37, 38, 40, 41, 42, 43, 48, 50, 51, 52, 53}, {2, 5, 8, 13, 18, 20, 24, 29, 33, 36, 41, 43, 44, 47, 48, 49, 50, 52}, {1, 3, 4, 5, 7, 9, 12, 13, 15, 16, 19, 21, 25, 29, 30, 31, 33, 34, 35, 36, 37, 38, 41, 42, 43, 45, 46, 48, 49, 50, 51, 52, 54}, {4, 7, 8, 9, 10, 15, 19, 21, 22, 25, 33, 34, 38, 39, 40, 41, 46, 48, 50, 51}];
RolesDemands = [4];
RolesContinuity = [];
ExamLen = [2, 2, 2, 2, 2, 2, 2, 2, 2, 2];
LunchTsMinLen = 2;
LunchStarts = [3..10];
SupervisorAvailable = 0;
OptimalLunchLenght = [0, 2];
OptimalStartTs = [2, 1];
OptimalFinishTs = [0, 14];
MinimizeRooms = 400;
RolesSoftContinuity = [|1|1|];
SameDegreeInRoom = 10;
Mergeability = 2;
